400
[80,81,82,83,84,85,86,87,88,90,91,92,94,96,97,98,100,101,102,103,106,108,109,111,112,113,114,115,116,117,118,119,120,121,122,125,126,128,129,131,132,133,135,136,138,139,142,143,144,145,146,147,148,149,150,151,152,154,155,156,157,158,160,161,162,164,165,166,167,168,169,170,171,172,173,174,175,178,180,181,182,183,184,185,187,188,189,193,194,195,197,198,199,200,203,204,205,206,207,208,209,210,211,212,213,215,216,217,218,219,220,221,222,223,224,225,227,228,229,230,231,233,234,235,236,238,239,240,241,242,244,245,247,248,249,250,252,253,255,256,257,258,260,262,263,265,266,267,268,269,270,271,272,273,274]
[1,3,2,1,4,2,1,2,2,4,1,1,2,2,1,2,1,1,1,1,3,3,4,1,2,2,1,3,1,3,1,2,1,2,3,1,2,5,2,1,3,1,1,2,3,4,2,1,1,1,1,1,3,3,1,1,1,1,1,2,2,3,3,1,1,4,2,1,1,2,4,4,1,2,2,1,2,2,2,1,1,2,1,2,1,2,1,1,2,1,2,1,1,3,5,1,2,3,4,2,1,1,1,1,2,1,1,4,1,1,1,2,2,3,3,2,1,1,3,1,2,1,3,2,6,1,3,2,2,1,1,2,1,1,4,1,4,2,2,3,3,5,1,2,2,2,3,2,3,1,1,1,1,3,2]
